language ESSENCE' 1.0
$ minion Nodes: 17
$ minion TotalTime: 0.001653
$ Savile Row TotalTime: 1.142
letting s_SetExplicitVarSizeWithMarker_tuple1 be 1
letting s_SetExplicitVarSizeWithMarker_tuple2_SetOccurrence be [[false, false, false, true, true;int(1..5)], 
[false, false, false, true, true;int(1..5)], 
[false, false, false, true, true;int(1..5)], 
[false, false, false, true, true;int(1..5)], 
[false, false, false, true, true;int(1..5)];int(1..5)]
